# Solution for model GasLib-40
# Objective value = 1.3811229735864591e+01
loadshed[innode_1] 0
loadshed[innode_2] 0
loadshed[innode_3] 0
loadshed[innode_4] 0
loadshed[innode_5] 0
loadshed[innode_6] 0
loadshed[innode_7] 0
loadshed[innode_8] 0
loadshed[source_1] -2.4256755507228922e-01
loadshed[source_2] 1.4311562510594078e-01
loadshed[source_3] 1.8681485911024498e-01
loadshed[sink_1] 0
loadshed[sink_2] 0
loadshed[sink_3] 0
loadshed[sink_4] 0
loadshed[sink_5] 0
loadshed[sink_6] 0
loadshed[sink_7] 0
loadshed[sink_8] 0
loadshed[sink_9] 0
loadshed[sink_10] 0
loadshed[sink_11] 0
loadshed[sink_12] 8.4450831505923607e-01
loadshed[sink_13] 0
loadshed[sink_14] 0
loadshed[sink_15] 0
loadshed[sink_16] 0
loadshed[sink_17] 0
loadshed[sink_18] 0
loadshed[sink_19] 0
loadshed[sink_20] 0
loadshed[sink_21] 0
loadshed[sink_22] 0
loadshed[sink_23] 0
loadshed[sink_24] 0
loadshed[sink_25] 0
loadshed[sink_26] 0
loadshed[sink_27] 0
loadshed[sink_28] 0
loadshed[sink_29] 0
flow[source_1,sink_3] 1.9643784993903239e+02
flow[innode_1,sink_16] 1.6354166666666970e+01
flow[innode_6,sink_13] -1.4077498141355434e+01
flow[sink_13,sink_14] -3.0431664808022102e+01
flow[sink_14,sink_10] -4.6785831474688770e+01
flow[sink_25,sink_26] 2.3150127026413898e+02
flow[sink_26,sink_9] 1.3069535843154367e+02
flow[sink_9,sink_18] 114.341191764877
flow[sink_26,sink_4] 8.4451745165929026e+01
flow[sink_4,sink_20] 1.6354166666668277e+01
flow[sink_18,sink_6] 9.7987025098210324e+01
flow[sink_25,innode_8] -1.6372951660569603e+02
flow[sink_6,sink_7] 4.8924525098209870e+01
flow[sink_6,sink_22] 3.2708333333333641e+01
flow[sink_7,sink_24] 3.5251270264135414e+01
flow[sink_22,sink_1] 1.6354166666666970e+01
flow[sink_24,sink_21] 1.8897103597468746e+01
flow[sink_21,sink_12] 2.5429369308020768e+00
flow[sink_7,sink_5] -2.6809118325924857e+00
flow[sink_5,sink_17] -1.9035078499259157e+01
flow[sink_17,sink_4] -5.1743411832594347e+01
flow[sink_17,sink_8] 1.6354166666668334e+01
flow[sink_3,sink_23] 16.3541666666697
flow[sink_8,sink_20] 0
flow[sink_25,sink_20] 0
flow[sink_25,sink_15] -7.0048422183754454e+01
flow[sink_15,sink_29] -1.0275675551710538e+02
flow[sink_29,sink_28] 1.6354166666667879e+01
flow[sink_29,sink_2] 0
flow[sink_2,sink_15] -1.6354166666684250e+01
flow[sink_29,innode_7] -1.3546508885043929e+02
flow[innode_4,sink_19] 5.0222545016043824e+01
flow[sink_19,innode_3] 4.6773581184061094e+01
flow[innode_4,innode_5] 7.8334119791978893e+01
flow[sink_27,innode_5] -7.8334119791978893e+01
flow[sink_27,sink_19] 6.1979953125312221e+01
flow[sink_10,sink_11] 3.2708333333333641e+01
flow[sink_10,innode_2] -4.9074750290627982e+01
flow[sink_10,innode_3] -4.6773581184061094e+01
flow[innode_6,sink_25] 1.4077498141355434e+01
flow[sink_11,innode_1] 1.6354166666666970e+01
flow[sink_19,innode_2] 4.9074750290627982e+01
flow[source_3,innode_4] 1.2855666480802273e+02
flow[source_2,innode_7] 1.3546508885043929e+02
flow[sink_3,innode_8] 1.6372951660569603e+02
pressure[innode_1] 7.6233102187805883e+01
pressure[innode_2] 7.8978606733626009e+01
pressure[innode_3] 78.8750319346274
pressure[innode_4] 81.01325
pressure[innode_5] 8.0959367661836140e+01
pressure[innode_6] 7.4039832409731346e+01
pressure[innode_7] 81.01325
pressure[innode_8] 8.0356633309632457e+01
pressure[source_1] 81.01325
pressure[source_2] 81.01325
pressure[source_3] 81.01325
pressure[sink_1] 4.1058051340983610e+01
pressure[sink_2] 7.4326242764268159e+01
pressure[sink_3] 8.0356633309632457e+01
pressure[sink_4] 4.6997920446914584e+01
pressure[sink_5] 4.3602482106603759e+01
pressure[sink_6] 4.3159128951370981e+01
pressure[sink_7] 4.2487511840190045e+01
pressure[sink_8] 4.4403372669885670e+01
pressure[sink_9] 4.9912879380622122e+01
pressure[sink_10] 7.6384803495409429e+01
pressure[sink_11] 7.6233102187805883e+01
pressure[sink_12] 1.0132500000000002e+00
pressure[sink_13] 7.4117439304416152e+01
pressure[sink_14] 7.4171899360794740e+01
pressure[sink_15] 74.3796355140346
pressure[sink_16] 75.2114523529882
pressure[sink_17] 4.5020457865299292e+01
pressure[sink_18] 4.5775674267207172e+01
pressure[sink_19] 7.8978606733626009e+01
pressure[sink_20] 4.5798102737523010e+01
pressure[sink_21] 1.9181661354597206e+00
pressure[sink_22] 4.2121820483338617e+01
pressure[sink_23] 8.0191915297972670e+01
pressure[sink_24] 2.1274340002984959e+00
pressure[sink_25] 7.4039832409731346e+01
pressure[sink_26] 5.7735333898184678e+01
pressure[sink_27] 8.0309339213452432e+01
pressure[sink_28] 7.7094807283509439e+01
pressure[sink_29] 7.7390089557126615e+01
interdiction[source_1,sink_3] 0
interdiction[innode_1,sink_16] 0
interdiction[innode_6,sink_13] 0
interdiction[sink_13,sink_14] 0
interdiction[sink_14,sink_10] 0
interdiction[sink_25,sink_26] 0
interdiction[sink_26,sink_9] 0
interdiction[sink_9,sink_18] 0
interdiction[sink_26,sink_4] 0
interdiction[sink_4,sink_20] 0
interdiction[sink_18,sink_6] 0
interdiction[sink_25,innode_8] 0
interdiction[sink_6,sink_7] 0
interdiction[sink_6,sink_22] 0
interdiction[sink_7,sink_24] 0
interdiction[sink_22,sink_1] 0
interdiction[sink_24,sink_21] 0
interdiction[sink_21,sink_12] 0
interdiction[sink_7,sink_5] 0
interdiction[sink_5,sink_17] 0
interdiction[sink_17,sink_4] 0
interdiction[sink_17,sink_8] 0
interdiction[sink_3,sink_23] 0
interdiction[sink_8,sink_20] 1
interdiction[sink_25,sink_20] 1
interdiction[sink_25,sink_15] 0
interdiction[sink_15,sink_29] 0
interdiction[sink_29,sink_28] 0
interdiction[sink_29,sink_2] 1
interdiction[sink_2,sink_15] 0
interdiction[sink_29,innode_7] 0
interdiction[innode_4,sink_19] 0
interdiction[sink_19,innode_3] 0
interdiction[innode_4,innode_5] 0
interdiction[sink_27,innode_5] 0
interdiction[sink_27,sink_19] 0
interdiction[sink_10,sink_11] 0
interdiction[sink_10,innode_2] 0
interdiction[sink_10,innode_3] 0
interdiction[innode_6,sink_25] 0
interdiction[sink_11,innode_1] 0
interdiction[sink_19,innode_2] 0
interdiction[source_3,innode_4] 0
interdiction[source_2,innode_7] 0
interdiction[sink_3,innode_8] 0
WCcheckFlow[source_1,sink_3] 39
WCcheckFlow[innode_1,sink_16] 1
WCcheckFlow[innode_6,sink_13] 13
WCcheckFlow[sink_13,sink_14] 12
WCcheckFlow[sink_14,sink_10] 11
WCcheckFlow[sink_25,sink_26] 15
WCcheckFlow[sink_26,sink_9] 12
WCcheckFlow[sink_9,sink_18] 11
WCcheckFlow[sink_26,sink_4] 2
WCcheckFlow[sink_4,sink_20] 1
WCcheckFlow[sink_18,sink_6] 10
WCcheckFlow[sink_25,innode_8] -36
WCcheckFlow[sink_6,sink_7] 7
WCcheckFlow[sink_6,sink_22] 2
WCcheckFlow[sink_7,sink_24] 3
WCcheckFlow[sink_22,sink_1] 1
WCcheckFlow[sink_24,sink_21] 2
WCcheckFlow[sink_21,sink_12] 1
WCcheckFlow[sink_7,sink_5] 3
WCcheckFlow[sink_5,sink_17] 2
WCcheckFlow[sink_17,sink_4] 0
WCcheckFlow[sink_17,sink_8] 1
WCcheckFlow[sink_3,sink_23] 1
WCcheckFlow[sink_8,sink_20] 0
WCcheckFlow[sink_25,sink_20] 0
WCcheckFlow[sink_25,sink_15] 6
WCcheckFlow[sink_15,sink_29] 4
WCcheckFlow[sink_29,sink_28] 1
WCcheckFlow[sink_29,sink_2] 0
WCcheckFlow[sink_2,sink_15] -1
WCcheckFlow[sink_29,innode_7] 2
WCcheckFlow[innode_4,sink_19] -4
WCcheckFlow[sink_19,innode_3] -5
WCcheckFlow[innode_4,innode_5] 2
WCcheckFlow[sink_27,innode_5] -1
WCcheckFlow[sink_27,sink_19] 0
WCcheckFlow[sink_10,sink_11] 3
WCcheckFlow[sink_10,innode_2] 1
WCcheckFlow[sink_10,innode_3] 6
WCcheckFlow[innode_6,sink_25] -14
WCcheckFlow[sink_11,innode_1] 2
WCcheckFlow[sink_19,innode_2] 0
WCcheckFlow[source_3,innode_4] -1
WCcheckFlow[source_2,innode_7] -1
WCcheckFlow[sink_3,innode_8] 37
